
Gurobi 11.0.3 (linux64) logging started Mon Aug 25 12:54:01 2025

Set parameter LogFile to value "/home/yihong/Coding/OR_SUC/SUC_epstheta_results_bigM100000_thread4/case24_ieee_rts_theta0.1_epsilon0.2_gurobi_seed240000_num_gen100_N_WDR50_load_scaling_factor1_proposed_eps_T2quadra_cost_bc1.03.txt"
Set parameter TimeLimit to value 3600
Gurobi Optimizer version 11.0.3 build v11.0.3rc0 (linux64 - "Ubuntu 20.04.6 LTS")

CPU model: AMD EPYC 7532 32-Core Processor, instruction set [SSE2|AVX|AVX2]
Thread count: 64 physical cores, 128 logical processors, using up to 4 threads

Academic license 2399124 - for non-commercial use only - registered to yi___@ed.ac.uk
Optimize a model with 5070 rows, 2531 columns and 192230 nonzeros
Model fingerprint: 0x91377dfc
Model has 200 quadratic constraints
Variable types: 2331 continuous, 200 integer (200 binary)
Coefficient statistics:
  Matrix range     [3e-04, 2e+03]
  QMatrix range    [2e-03, 8e-03]
  QLMatrix range   [4e-01, 6e+01]
  Objective range  [1e+00, 1e+00]
  Bounds range     [1e+00, 1e+00]
  RHS range        [1e+00, 9e+03]
Presolve removed 4370 rows and 1230 columns
Presolve time: 0.04s
Presolved: 700 rows, 1301 columns, 5531 nonzeros
Presolved model has 200 quadratic constraint(s)
Variable types: 1101 continuous, 200 integer (200 binary)

Root relaxation: objective 1.750023e+03, 507 iterations, 0.00 seconds (0.01 work units)

    Nodes    |    Current Node    |     Objective Bounds      |     Work
 Expl Unexpl |  Obj  Depth IntInf | Incumbent    BestBd   Gap | It/Node Time

     0     0 1750.02295    0    2          - 1750.02295      -     -    0s
H    0     0                    70522.171739 1750.02295  97.5%     -    0s
     0     0 27357.7535    0    2 70522.1717 27357.7535  61.2%     -    0s
H    0     0                    63045.136160 27358.1780  56.6%     -    0s
     0     0 61708.1448    0    4 63045.1362 61708.1448  2.12%     -    0s
H    0     0                    61721.825769 61708.5260  0.02%     -    0s

Cutting planes:
  Implied bound: 8

Explored 1 nodes (1184 simplex iterations) in 0.21 seconds (0.13 work units)
Thread count was 4 (of 128 available processors)

Solution count 3: 61721.8 63045.1 70522.2 

Optimal solution found (tolerance 1.00e-03)
Best objective 6.172182576921e+04, best bound 6.170858592382e+04, gap 0.0215%

Gurobi 11.0.3 (linux64) logging started Mon Aug 25 12:54:02 2025

Set parameter LogFile to value "/home/yihong/Coding/OR_SUC/SUC_epstheta_results_bigM100000_thread4/case24_ieee_rts_theta0.1_epsilon0.2_gurobi_seed240000_num_gen100_N_WDR50_load_scaling_factor1_proposed_eps_T2quadra_cost_bc1.03.txt"
Set parameter TimeLimit to value 3600
Gurobi Optimizer version 11.0.3 build v11.0.3rc0 (linux64 - "Ubuntu 20.04.6 LTS")

CPU model: AMD EPYC 7532 32-Core Processor, instruction set [SSE2|AVX|AVX2]
Thread count: 64 physical cores, 128 logical processors, using up to 4 threads

Academic license 2399124 - for non-commercial use only - registered to yi___@ed.ac.uk
Optimize a model with 5070 rows, 2532 columns and 192799 nonzeros
Model fingerprint: 0xc58fdc94
Model has 201 quadratic constraints
Variable types: 2332 continuous, 200 integer (200 binary)
Coefficient statistics:
  Matrix range     [3e-04, 2e+03]
  QMatrix range    [2e-03, 5e+01]
  QLMatrix range   [4e-01, 6e+01]
  Objective range  [1e+00, 1e+00]
  Bounds range     [2e-01, 1e+00]
  RHS range        [1e+00, 6e+04]
  QRHS range       [5e+00, 5e+00]
Presolve removed 4177 rows and 1134 columns
Presolve time: 0.05s
Presolved: 1095 rows, 1598 columns, 7513 nonzeros
Presolved model has 200 quadratic constraint(s)
Presolved model has 1 bilinear constraint(s)

Solving non-convex MIQCP

Variable types: 1394 continuous, 204 integer (204 binary)

Root relaxation: objective 1.469831e-03, 1417 iterations, 0.02 seconds (0.03 work units)

    Nodes    |    Current Node    |     Objective Bounds      |     Work
 Expl Unexpl |  Obj  Depth IntInf | Incumbent    BestBd   Gap | It/Node Time

     0     0    0.00147    0    3          -    0.00147      -     -    0s
     0     0    0.00147    0    3          -    0.00147      -     -    0s
     0     0    0.00147    0    5          -    0.00147      -     -    0s
H    0     0                       0.0249192    0.00147  94.1%     -    0s
     0     0    0.02276    0    5    0.02492    0.02276  8.65%     -    0s
     0     0    0.02279    0    5    0.02492    0.02279  8.55%     -    0s
H    0     0                       0.0237059    0.02279  3.87%     -    0s
     0     0    0.02291    0    5    0.02371    0.02291  3.36%     -    0s
     0     0    0.02294    0    5    0.02371    0.02294  3.22%     -    0s
     0     0    0.02294    0    5    0.02371    0.02294  3.21%     -    0s
     0     0    0.02296    0    5    0.02371    0.02296  3.16%     -    0s
     0     0    0.02296    0    5    0.02371    0.02296  3.16%     -    0s
     0     0    0.02296    0    5    0.02371    0.02296  3.16%     -    0s
     0     0    0.02296    0    5    0.02371    0.02296  3.16%     -    0s
     0     0    0.02296    0    3    0.02371    0.02296  3.16%     -    0s
     0     0    0.02296    0    4    0.02371    0.02296  3.16%     -    0s
     0     0    0.02296    0    4    0.02371    0.02296  3.16%     -    0s
     0     0    0.02296    0    4    0.02371    0.02296  3.16%     -    0s
     0     0    0.02296    0    4    0.02371    0.02296  3.16%     -    0s
     0     0    0.02296    0    3    0.02371    0.02296  3.16%     -    0s
     0     2    0.02296    0    3    0.02371    0.02296  3.16%     -    0s
H   38    37                       0.0235418    0.02296  2.48%  16.9    0s
H   71    43                       0.0230285    0.02301  0.07%  11.4    0s
*   71    43               7       0.0230285    0.02301  0.07%  11.5    0s

Cutting planes:
  Gomory: 2
  Implied bound: 1
  MIR: 2
  Flow cover: 2
  RLT: 1

Explored 85 nodes (3217 simplex iterations) in 0.86 seconds (0.57 work units)
Thread count was 4 (of 128 available processors)

Solution count 4: 0.0230285 0.0235418 0.0237059 0.0249192 

Optimal solution found (tolerance 1.00e-03)
Best objective 2.302854260201e-02, best bound 2.301244365540e-02, gap 0.0699%
